c A SAT instance generated from a 3-CNF formula that had 30 clauses and 15 variables
p cnf 15 30
-3 -4 5 0
1 11 13 0
10 -12 -1 0
-13 3 -1 0
-11 -15 9 0
-1 -13 -14 0
-8 -12 -4 0
-6 -9 -11 0
-3 14 9 0
7 -5 -4 0
15 1 14 0
2 -7 5 0
-7 -6 -10 0
-15 -13 -3 0
-8 11 -6 0
-11 -2 -3 0
11 -2 15 0
-10 -12 -13 0
-11 3 -9 0
-10 9 14 0
-11 -7 10 0
15 -12 -8 0
-4 10 6 0
9 -4 -10 0
-11 14 -7 0
-9 7 10 0
11 13 -10 0
-10 -15 -6 0
-9 -4 -14 0
15 -12 6 0
%
0

41 99 9 15 4 90 8 71 30 96 48 36 78 70 31
